p cnf 430 1678
1 -2 0
2 -1 0
3 -4 0
4 -3 0
5 -6 0
6 -5 0
7 -8 0
8 -7 0
9 -10 0
10 -9 0
11 -12 0
12 -11 0
13 -14 0
14 -13 0
15 -16 0
16 -15 0
17 -18 0
18 -17 0
19 -20 0
20 -19 0
21 -22 0
22 -21 0
23 -24 0
24 -23 0
25 -26 0
26 -25 0
27 -28 0
28 -27 0
29 -30 0
30 -29 0
31 -32 0
32 -31 0
33 -34 0
34 -33 0
35 -36 0
36 -35 0
37 -38 0
38 -37 0
39 -40 0
40 -39 0
41 -42 0
42 -41 0
43 -44 0
44 -43 0
45 -46 0
46 -45 0
47 -48 0
48 -47 0
49 -50 0
50 -49 0
51 -52 0
52 -51 0
53 -54 0
54 -53 0
55 -56 0
56 -55 0
57 -58 0
58 -57 0
59 -60 0
60 -59 0
61 -62 0
62 -61 0
63 -64 0
64 -63 0
65 -66 0
66 -65 0
67 -68 0
68 -67 0
69 -70 0
70 -69 0
71 -72 0
72 -71 0
73 -74 0
74 -73 0
75 -76 0
76 -75 0
77 -78 0
78 -77 0
79 -80 0
80 -79 0
81 -82 0
82 -81 0
83 -84 0
84 -83 0
85 -86 0
86 -85 0
87 -88 0
-87 88 0
89 -90 0
90 -89 0
91 -92 0
92 -91 0
93 -94 0
-93 94 0
95 -96 0
96 -95 0
97 -98 0
98 -97 0
99 -100 0
100 -99 0
101 -102 0
102 -101 0
103 -104 0
-103 104 0
105 -106 0
106 -105 0
107 -108 0
-107 108 0
109 -110 0
110 -109 0
111 -112 0
112 -111 0
113 -114 0
114 -113 0
115 -116 0
-115 116 0
117 -118 0
118 -117 0
119 -120 0
120 -119 0
121 -122 0
-121 122 0
123 -124 0
-123 124 0
125 -126 0
126 -125 0
127 -128 0
-127 128 0
129 -130 0
130 -129 0
131 -132 0
132 -131 0
133 -134 0
-133 134 0
135 -136 0
-135 136 0
137 -138 0
138 -137 0
139 -140 0
-139 140 0
-141 -17 15 0
-141 17 -15 0
141 -15 -17 0
141 15 17 0
29 -31 -142 0
-29 31 -142 0
142 -29 -31 0
29 142 31 0
15 143 0
29 143 0
-15 -29 -143 0
141 142 -144 143 0
-141 -144 -142 143 0
-141 142 -143 -144 0
141 -143 -144 -142 0
-141 -143 144 -142 0
141 142 -143 144 0
141 144 -142 143 0
-141 142 144 143 0
-145 -45 43 0
-145 45 -43 0
145 -43 -45 0
145 45 43 0
-29 -146 15 0
29 -146 -15 0
146 -15 -29 0
29 146 15 0
-146 147 0
43 147 0
146 -43 -147 0
-145 -148 147 0
145 -148 -147 0
148 -145 -147 0
145 148 147 0
148 3 144 -149 0
148 -3 -144 -149 0
144 -3 -148 -149 0
3 -148 -144 -149 0
149 -3 -148 -144 0
149 3 144 -148 0
149 148 3 -144 0
149 148 144 -3 0
-149 0
29 -150 -43 0
-29 -150 43 0
150 -29 -43 0
29 150 43 0
150 -151 -57 0
-150 -151 57 0
151 -150 -57 0
150 151 57 0
-152 151 -71 0
-152 -151 71 0
152 -151 -71 0
151 152 71 0
152 15 85 0
-152 15 -85 0
152 -15 -85 0
-152 85 -15 0
-153 -71 43 0
-153 -43 71 0
153 -43 -71 0
71 153 43 0
-154 -85 153 0
-153 85 -154 0
154 -153 -85 0
154 85 153 0
-155 154 -99 0
99 -155 -154 0
-154 -99 155 0
99 154 155 0
113 156 0
156 -155 0
-113 -156 155 0
113 -157 -115 0
115 -113 -157 0
157 -113 -115 0
115 113 157 0
99 -101 -158 0
101 -99 -158 0
158 -99 -101 0
99 101 158 0
154 159 0
99 159 0
-154 -99 -159 0
-160 85 -87 0
-160 87 -85 0
160 -85 -87 0
160 85 87 0
161 -153 0
85 161 0
153 -85 -161 0
-73 71 -162 0
73 -71 -162 0
162 -71 -73 0
73 71 162 0
43 163 0
71 163 0
-43 -71 -163 0
145 -164 163 162 0
145 -164 -163 -162 0
-164 -145 163 -162 0
-164 -145 -163 162 0
-145 164 -163 -162 0
-145 164 163 162 0
145 164 -163 162 0
145 164 163 -162 0
-165 164 160 161 0
-165 164 -160 -161 0
-164 -165 161 -160 0
-164 -165 160 -161 0
-164 165 -160 -161 0
-164 160 161 165 0
164 160 165 -161 0
164 161 165 -160 0
159 165 -166 158 0
165 -166 -158 -159 0
159 -165 -166 -158 0
-165 -166 158 -159 0
-165 166 -158 -159 0
159 -165 166 158 0
166 165 158 -159 0
159 166 165 -158 0
166 -157 -167 0
166 -156 -167 0
-157 -156 -167 0
-166 157 167 0
156 -166 167 0
156 157 167 0
-115 168 0
-113 168 0
115 113 -168 0
-117 -169 168 0
117 -169 -168 0
-117 169 -168 0
117 169 168 0
-167 169 -170 0
-170 -169 167 0
-167 170 -169 0
169 170 167 0
165 -171 -158 0
165 -171 -159 0
-171 -158 -159 0
171 -165 158 0
171 159 -165 0
171 159 158 0
172 -99 0
-101 172 0
99 101 -172 0
-173 -103 172 0
-173 -172 103 0
-103 -172 173 0
172 173 103 0
-160 -161 -174 0
164 -160 -174 0
164 -161 -174 0
160 161 174 0
-164 160 174 0
-164 161 174 0
-85 175 0
-87 175 0
85 87 -175 0
-176 -89 175 0
-176 -175 89 0
-175 176 -89 0
176 89 175 0
145 -177 -162 0
145 -163 -177 0
-163 -177 -162 0
-145 177 162 0
-145 163 177 0
163 177 162 0
178 -73 0
178 -71 0
73 71 -178 0
178 -75 -179 0
75 -178 -179 0
-75 -178 179 0
178 75 179 0
180 -45 0
180 -43 0
-180 45 43 0
180 -181 -47 0
-181 -180 47 0
-180 181 -47 0
180 181 47 0
145 -181 -182 0
-145 181 -182 0
182 -145 -181 0
145 181 182 0
177 182 -183 179 0
-177 182 -183 -179 0
-182 -177 -183 179 0
-182 177 -183 -179 0
-182 -177 183 -179 0
-182 177 183 179 0
177 182 183 -179 0
-177 182 183 179 0
-184 176 174 183 0
-184 -176 -174 183 0
-184 176 -174 -183 0
-184 -176 174 -183 0
184 -176 -174 -183 0
184 176 174 -183 0
184 -176 174 183 0
184 176 -174 183 0
171 184 173 -185 0
-173 184 -171 -185 0
-184 -171 173 -185 0
171 -173 -184 -185 0
-173 -184 -171 185 0
171 -184 173 185 0
171 -173 184 185 0
184 -171 173 185 0
33 170 -186 185 0
-33 -170 -186 185 0
-33 170 -186 -185 0
33 -170 -186 -185 0
186 -33 -170 -185 0
186 33 170 -185 0
186 33 -170 185 0
186 -33 170 185 0
-186 0
-129 187 0
-127 187 0
129 127 -187 0
-131 188 0
-187 188 0
131 187 -188 0
-133 189 0
189 -188 0
133 188 -189 0
-135 189 -190 0
-189 135 -190 0
-135 -189 190 0
135 189 190 0
-133 -191 188 0
133 -188 -191 0
-133 -188 191 0
133 191 188 0
-192 127 -129 0
129 -127 -192 0
192 -127 -129 0
129 192 127 0
85 193 0
113 193 0
-85 -113 -193 0
-194 160 193 157 0
-194 -157 193 -160 0
-194 -193 -160 157 0
-194 -193 160 -157 0
194 -193 -157 -160 0
194 -193 160 157 0
194 160 -157 193 0
194 193 -160 157 0
-113 -195 85 0
113 -195 -85 0
195 -85 -113 0
113 85 195 0
-195 196 0
127 196 0
195 -127 -196 0
-194 -197 -196 0
-192 -197 -196 0
-194 -192 -197 0
197 194 196 0
197 192 196 0
197 194 192 0
-198 -131 187 0
-198 131 -187 0
198 -131 -187 0
198 131 187 0
-157 -160 -199 0
-193 -160 -199 0
-193 -157 -199 0
199 160 157 0
199 160 193 0
199 193 157 0
-200 199 176 169 0
-200 176 -169 -199 0
-200 -176 169 -199 0
-200 -176 199 -169 0
200 -176 -169 -199 0
200 -176 199 169 0
200 199 176 -169 0
200 176 169 -199 0
200 -198 -201 0
197 200 -201 0
197 -198 -201 0
-200 201 198 0
-200 201 -197 0
201 198 -197 0
-176 -202 -169 0
-176 199 -202 0
199 -202 -169 0
176 169 202 0
176 202 -199 0
169 202 -199 0
-117 203 0
203 -168 0
117 168 -203 0
203 -204 -119 0
119 -203 -204 0
204 -203 -119 0
119 204 203 0
205 -89 0
-175 205 0
89 175 -205 0
-206 205 -91 0
-206 91 -205 0
-205 -91 206 0
91 205 206 0
-207 204 202 206 0
-207 -202 -204 206 0
-207 -206 204 -202 0
-207 -206 202 -204 0
-206 207 -202 -204 0
-206 204 207 202 0
207 202 -204 206 0
204 207 -202 206 0
201 -207 -208 0
-207 -208 -191 0
201 -208 -191 0
-201 207 208 0
207 208 191 0
-201 208 191 0
-209 -204 206 0
-209 202 -204 0
-209 202 206 0
209 -206 204 0
209 204 -202 0
209 -206 -202 0
-119 210 0
-203 210 0
119 203 -210 0
-121 -211 210 0
-210 -211 121 0
-121 -210 211 0
211 121 210 0
212 -91 0
-205 212 0
91 205 -212 0
-93 -213 212 0
93 -213 -212 0
-93 213 -212 0
93 213 212 0
-214 -213 206 0
-206 -214 213 0
214 -206 -213 0
213 206 214 0
209 -215 211 214 0
-215 -209 -211 214 0
-214 -215 -209 211 0
209 -214 -215 -211 0
-214 215 -209 -211 0
209 -214 215 211 0
209 215 -211 214 0
215 -209 211 214 0
-215 -216 208 0
-215 -216 -190 0
-216 208 -190 0
-208 216 215 0
216 215 190 0
-208 216 190 0
-135 217 0
-189 217 0
135 189 -217 0
-218 217 -137 0
-218 137 -217 0
-217 218 -137 0
137 217 218 0
-219 218 -216 0
-218 216 -219 0
-218 219 -216 0
219 216 218 0
-220 -211 214 0
209 -220 214 0
209 -220 -211 0
-214 220 211 0
-214 220 -209 0
220 -209 211 0
-121 221 0
-210 221 0
121 210 -221 0
-123 -222 221 0
-222 123 -221 0
-123 -221 222 0
123 221 222 0
223 213 206 0
206 223 0
213 223 0
-206 -213 -223 0
-93 224 0
224 -212 0
93 212 -224 0
224 -95 -225 0
95 -224 -225 0
-224 -95 225 0
95 224 225 0
-226 -223 225 0
223 -226 -225 0
226 -223 -225 0
223 226 225 0
226 220 -227 222 0
226 -220 -222 -227 0
-226 -220 -227 222 0
-226 220 -222 -227 0
-226 -220 -222 227 0
-226 220 227 222 0
226 220 -222 227 0
226 -220 227 222 0
53 219 227 -228 0
-53 -219 227 -228 0
-53 219 -227 -228 0
53 -219 -227 -228 0
-53 -219 -227 228 0
53 219 -227 228 0
53 -219 227 228 0
-53 219 227 228 0
-228 0
-145 -229 -147 0
-144 -229 -147 0
-145 -144 -229 0
145 229 147 0
144 229 147 0
145 144 229 0
-141 -230 -142 0
-141 -143 -230 0
-143 -230 -142 0
141 142 230 0
141 230 143 0
142 230 143 0
-29 231 0
231 -31 0
29 31 -231 0
231 -33 -232 0
33 -231 -232 0
-231 -33 232 0
33 231 232 0
233 -15 0
233 -17 0
15 17 -233 0
233 -234 -19 0
19 -234 -233 0
-19 -233 234 0
233 19 234 0
230 -235 234 232 0
-230 -235 234 -232 0
-230 -234 -235 232 0
-234 230 -235 -232 0
-230 -234 235 -232 0
-234 230 235 232 0
230 235 234 -232 0
-230 235 234 232 0
-235 229 -236 0
-181 -235 -236 0
-181 229 -236 0
236 -229 235 0
236 181 235 0
236 181 -229 0
-47 237 0
-180 237 0
47 180 -237 0
-49 237 -238 0
49 -237 -238 0
-49 -237 238 0
49 237 238 0
-239 234 -232 0
-239 230 -232 0
-239 230 234 0
239 -234 232 0
239 -230 232 0
239 -230 -234 0
-33 240 0
-231 240 0
33 231 -240 0
-241 240 -35 0
35 -241 -240 0
-240 241 -35 0
35 240 241 0
-19 242 0
-233 242 0
19 233 -242 0
-21 242 -243 0
21 -242 -243 0
-21 243 -242 0
21 243 242 0
234 -244 -243 0
-234 243 -244 0
244 -234 -243 0
243 234 244 0
239 241 244 -245 0
-239 -241 244 -245 0
-239 241 -244 -245 0
239 -241 -244 -245 0
-239 -241 -244 245 0
239 241 -244 245 0
239 -241 244 245 0
-239 241 244 245 0
-246 -238 -245 0
236 -246 -245 0
236 -246 -238 0
246 238 245 0
-236 246 245 0
-236 246 238 0
-49 247 0
247 -237 0
49 237 -247 0
-248 247 -51 0
-248 51 -247 0
-247 248 -51 0
51 247 248 0
-249 -241 244 0
239 -249 -241 0
239 -249 244 0
249 241 -244 0
249 -239 241 0
249 -239 -244 0
250 -35 0
250 -240 0
35 240 -250 0
-37 250 -251 0
37 -251 -250 0
-37 251 -250 0
37 250 251 0
234 252 0
252 243 234 0
243 252 0
-252 -234 -243 0
-21 253 0
253 -242 0
21 242 -253 0
-254 -23 253 0
-254 23 -253 0
-23 254 -253 0
254 23 253 0
-252 254 -255 0
-254 -255 252 0
-254 -252 255 0
254 252 255 0
249 -256 251 255 0
-249 -256 -251 255 0
-249 -256 -255 251 0
249 -256 -255 -251 0
256 -249 -255 -251 0
249 256 -255 251 0
249 256 -251 255 0
256 -249 251 255 0
-248 -256 -257 0
-256 -257 246 0
-248 -257 246 0
256 248 257 0
256 257 -246 0
248 257 -246 0
-258 -251 255 0
249 -258 -251 0
249 -258 255 0
258 -255 251 0
-249 258 251 0
-249 258 -255 0
-37 259 0
-250 259 0
37 250 -259 0
-39 259 -260 0
39 -259 -260 0
-39 -259 260 0
39 260 259 0
-23 261 0
261 -253 0
23 253 -261 0
-25 261 -262 0
25 -262 -261 0
-25 262 -261 0
25 261 262 0
252 263 0
-254 263 0
-252 254 -263 0
-264 -262 263 0
-263 262 -264 0
264 -263 -262 0
264 262 263 0
264 260 258 -265 0
264 -258 -265 -260 0
-258 260 -264 -265 0
258 -264 -265 -260 0
-258 -264 -260 265 0
260 258 -264 265 0
264 258 -260 265 0
264 -258 260 265 0
266 -51 0
266 -247 0
51 247 -266 0
-267 -53 266 0
53 -266 -267 0
-266 -53 267 0
53 266 267 0
-267 -268 -265 0
-267 -268 257 0
-268 257 -265 0
268 265 267 0
-257 268 267 0
-257 268 265 0
-53 269 0
-266 269 0
53 266 -269 0
-55 -270 269 0
-270 -269 55 0
-55 270 -269 0
269 270 55 0
-268 -271 270 0
-270 -271 268 0
271 -268 -270 0
271 270 268 0
264 -272 -260 0
258 -272 -260 0
264 258 -272 0
260 -264 272 0
-258 260 272 0
-258 -264 272 0
-39 273 0
-259 273 0
39 259 -273 0
-274 -41 273 0
41 -274 -273 0
-41 274 -273 0
41 273 274 0
-272 -275 274 0
-274 -275 272 0
275 -274 -272 0
275 272 274 0
262 276 0
263 276 0
262 263 276 0
-263 -276 -262 0
-25 277 0
-261 277 0
25 261 -277 0
-278 -27 277 0
-278 27 -277 0
278 -277 -27 0
27 278 277 0
-279 275 278 276 0
-279 278 -276 -275 0
-279 -278 -275 276 0
-279 275 -278 -276 0
279 -278 -276 -275 0
279 275 -278 276 0
279 275 278 -276 0
279 278 -275 276 0
279 271 -280 13 0
279 -13 -280 -271 0
-279 -13 271 -280 0
-279 -280 -271 13 0
-279 -13 280 -271 0
-279 271 280 13 0
279 280 -271 13 0
279 -13 271 280 0
-280 0
-281 248 -246 0
-281 -248 246 0
-248 281 -246 0
281 248 246 0
9 256 281 0
9 -256 -281 0
-281 256 -9 0
-256 281 -9 0
-282 -236 238 0
-282 236 -238 0
282 -236 -238 0
282 236 238 0
7 245 282 0
7 -245 -282 0
-7 -282 245 0
282 -7 -245 0
-283 -257 267 0
-267 -283 257 0
-267 -257 283 0
257 283 267 0
11 265 283 0
11 -265 -283 0
-283 -11 265 0
-265 283 -11 0
1 146 43 0
1 -146 -43 0
-1 146 -43 0
-146 -1 43 0
181 -284 -229 0
-181 -284 229 0
284 -181 -229 0
284 181 229 0
5 235 284 0
5 -235 -284 0
-284 -5 235 0
284 -5 -235 0
29 285 0
43 285 0
-29 -43 -285 0
-286 145 285 142 0
-286 285 -145 -142 0
-286 145 -285 -142 0
-286 -145 142 -285 0
-145 -285 286 -142 0
145 142 -285 286 0
285 -145 142 286 0
145 285 286 -142 0
-287 57 -59 0
-287 -57 59 0
287 -57 -59 0
287 59 57 0
-150 288 0
57 288 0
150 -57 -288 0
-287 -289 -288 0
-286 -289 -288 0
-286 -287 -289 0
289 287 288 0
289 288 286 0
289 287 286 0
290 -59 0
290 -57 0
-290 59 57 0
290 -291 -61 0
-290 61 -291 0
-290 291 -61 0
291 290 61 0
-145 -292 -142 0
-145 -292 -285 0
-292 -285 -142 0
145 142 292 0
145 285 292 0
285 142 292 0
-293 181 292 232 0
-292 -181 -293 232 0
-292 -293 181 -232 0
-181 -293 292 -232 0
293 -292 -181 -232 0
293 181 292 -232 0
293 -181 292 232 0
293 -292 181 232 0
293 289 291 -294 0
293 -294 -289 -291 0
291 -293 -294 -289 0
289 -293 -294 -291 0
-293 294 -289 -291 0
289 291 -293 294 0
293 289 294 -291 0
293 291 294 -289 0
287 288 286 -295 0
-286 -287 288 -295 0
-286 287 -288 -295 0
-287 -288 286 -295 0
-286 -287 -288 295 0
287 -288 286 295 0
-287 288 286 295 0
-286 287 288 295 0
151 296 0
71 296 0
-296 -151 -71 0
-296 -297 -295 0
-296 -297 -162 0
-297 -295 -162 0
296 297 295 0
296 297 162 0
297 295 162 0
-298 297 -179 0
-298 294 -179 0
-298 297 294 0
-297 298 179 0
298 -294 179 0
-297 298 -294 0
299 -75 0
299 -178 0
75 178 -299 0
-300 299 -77 0
-300 77 -299 0
300 -77 -299 0
299 77 300 0
289 -301 -291 0
289 -301 -293 0
-301 -293 -291 0
301 291 -289 0
301 293 -289 0
301 293 291 0
302 -61 0
302 -290 0
61 290 -302 0
302 -63 -303 0
63 -302 -303 0
-63 303 -302 0
302 63 303 0
-181 -304 232 0
-304 292 232 0
-181 -304 292 0
181 304 -232 0
304 -232 -292 0
-292 181 304 0
-241 -305 232 0
241 -305 -232 0
305 -232 -241 0
241 305 232 0
-306 304 305 238 0
-306 -304 305 -238 0
-306 -304 -305 238 0
-306 -305 304 -238 0
306 -304 -305 -238 0
306 -305 304 238 0
306 304 305 -238 0
306 -304 305 238 0
306 301 303 -307 0
306 -301 -307 -303 0
-306 -301 303 -307 0
301 -306 -307 -303 0
307 -306 -301 -303 0
301 307 -306 303 0
306 301 307 -303 0
306 307 -301 303 0
307 298 300 -308 0
-300 307 -298 -308 0
-298 300 -307 -308 0
-300 298 -307 -308 0
-300 -298 -307 308 0
298 300 -307 308 0
-300 307 298 308 0
307 -298 300 308 0
-309 296 295 162 0
-309 296 -295 -162 0
-309 -296 -295 162 0
-309 -296 295 -162 0
-296 309 -295 -162 0
-296 309 295 162 0
309 296 295 -162 0
309 296 -295 162 0
85 310 0
-152 310 0
152 -85 -310 0
-160 -310 -311 0
-309 -160 -311 0
-309 -310 -311 0
311 310 160 0
311 309 160 0
311 310 309 0
297 294 -312 179 0
-297 294 -312 -179 0
-297 -294 -312 179 0
297 -294 -312 -179 0
-297 -294 312 -179 0
297 -294 312 179 0
297 294 312 -179 0
-297 294 312 179 0
-176 -313 -312 0
311 -313 -312 0
311 -176 -313 0
176 313 312 0
313 -311 312 0
176 313 -311 0
-314 -206 313 0
-314 -206 308 0
-314 313 308 0
314 -313 206 0
314 -308 206 0
314 -313 -308 0
-300 -315 -307 0
-300 -315 298 0
-315 298 -307 0
307 300 315 0
-298 300 315 0
307 -298 315 0
-77 316 0
-299 316 0
77 299 -316 0
-317 -79 316 0
-317 79 -316 0
317 -79 -316 0
317 79 316 0
306 -303 -318 0
301 -303 -318 0
306 301 -318 0
-306 303 318 0
-301 303 318 0
-306 -301 318 0
-63 319 0
-302 319 0
63 302 -319 0
-320 319 -65 0
-319 -320 65 0
-319 320 -65 0
320 319 65 0
-321 -305 304 0
-321 -305 -238 0
-321 304 -238 0
-304 321 305 0
321 305 238 0
-304 321 238 0
322 -232 0
322 -241 0
232 241 -322 0
-323 322 -251 0
-323 -322 251 0
-322 323 -251 0
322 323 251 0
-324 323 248 321 0
-321 -324 -248 323 0
-323 -321 -324 248 0
-323 -324 -248 321 0
-323 -321 -248 324 0
-323 248 321 324 0
-248 323 321 324 0
-321 323 248 324 0
320 318 -325 324 0
-320 -325 -318 324 0
320 -324 -325 -318 0
-320 -324 318 -325 0
-320 -324 325 -318 0
320 -324 318 325 0
-320 318 325 324 0
320 325 -318 324 0
317 -326 315 325 0
-317 -315 -326 325 0
-315 317 -326 -325 0
-317 -326 -325 315 0
-317 -315 326 -325 0
317 326 -325 315 0
-317 326 315 325 0
-315 317 326 325 0
314 326 -327 0
326 -213 -327 0
314 -213 -327 0
-314 -326 327 0
-326 213 327 0
-314 213 327 0
225 -327 -328 0
-225 327 -328 0
328 -225 -327 0
225 327 328 0
-317 -325 -329 0
-325 315 -329 0
-317 315 -329 0
317 325 329 0
-315 325 329 0
-315 317 329 0
-79 330 0
-316 330 0
79 316 -330 0
-81 330 -331 0
81 -330 -331 0
-81 -330 331 0
81 330 331 0
318 324 -332 0
-320 324 -332 0
-320 318 -332 0
-324 -318 332 0
320 -324 332 0
320 -318 332 0
-65 333 0
-319 333 0
65 319 -333 0
-67 333 -334 0
67 -333 -334 0
-67 -333 334 0
67 333 334 0
-323 321 -335 0
-323 -248 -335 0
-248 321 -335 0
-321 323 335 0
323 248 335 0
-321 248 335 0
-251 336 0
-322 336 0
251 322 -336 0
-260 336 -337 0
260 -336 -337 0
-260 -336 337 0
260 336 337 0
267 335 337 -338 0
-267 -335 337 -338 0
267 -335 -337 -338 0
-267 335 -337 -338 0
-267 -335 -337 338 0
267 335 -337 338 0
-267 335 337 338 0
267 -335 337 338 0
332 334 338 -339 0
-332 -334 338 -339 0
-332 334 -338 -339 0
332 -334 -338 -339 0
-332 -334 -338 339 0
332 334 -338 339 0
332 -334 338 339 0
-332 334 338 339 0
329 331 339 -340 0
-329 -331 339 -340 0
-329 331 -339 -340 0
329 -331 -339 -340 0
-329 -331 -339 340 0
329 331 -339 340 0
329 -331 339 340 0
-329 331 339 340 0
25 328 340 0
25 -328 -340 0
-25 -328 340 0
-25 328 -340 0
176 -311 -341 0
311 -176 -341 0
341 -176 -311 0
311 176 341 0
19 312 341 0
19 -312 -341 0
-19 312 -341 0
-19 -312 341 0
-314 213 -342 0
314 -213 -342 0
342 -213 -314 0
314 213 342 0
326 23 342 -343 0
326 -23 -342 -343 0
-326 -23 342 -343 0
-326 23 -342 -343 0
-326 -23 -342 343 0
-326 23 342 343 0
326 23 -342 343 0
326 -23 342 343 0
-343 0
-313 206 -344 0
-206 313 -344 0
344 -206 -313 0
313 206 344 0
21 308 344 -345 0
-21 308 -344 -345 0
-21 -308 344 -345 0
21 -308 -344 -345 0
-21 -308 -344 345 0
21 -308 344 345 0
21 308 -344 345 0
-21 308 344 345 0
-345 0
310 -160 -346 0
160 -310 -346 0
-160 -310 346 0
310 160 346 0
309 17 346 -347 0
-309 -17 346 -347 0
309 -17 -346 -347 0
-309 17 -346 -347 0
-309 -17 -346 347 0
309 17 -346 347 0
-309 17 346 347 0
309 -17 346 347 0
-347 0
327 -340 -348 0
-225 327 -348 0
-225 -340 -348 0
-327 340 348 0
225 -327 348 0
225 340 348 0
-95 349 0
-224 349 0
95 224 -349 0
-97 349 -350 0
97 -349 -350 0
-97 -349 350 0
97 349 350 0
-348 350 -351 0
348 -350 -351 0
-348 -350 351 0
348 350 351 0
-331 339 -352 0
329 -331 -352 0
329 339 -352 0
331 -339 352 0
-329 331 352 0
-329 -339 352 0
-81 353 0
-330 353 0
81 330 -353 0
-83 353 -354 0
83 -353 -354 0
-83 -353 354 0
83 353 354 0
-352 354 -355 0
352 -354 -355 0
-352 -354 355 0
352 354 355 0
332 -338 -356 0
332 -334 -356 0
-334 -338 -356 0
-332 338 356 0
-332 334 356 0
334 338 356 0
-67 357 0
-333 357 0
67 333 -357 0
69 356 357 -358 0
-69 -356 357 -358 0
69 -356 -357 -358 0
-69 356 -357 -358 0
-69 -356 -357 358 0
69 356 -357 358 0
-69 356 357 358 0
69 -356 357 358 0
-267 337 -359 0
-267 335 -359 0
335 337 -359 0
267 -337 359 0
267 -335 359 0
-335 -337 359 0
270 -359 -360 0
-270 359 -360 0
360 -270 -359 0
270 359 360 0
260 361 0
336 361 0
260 336 361 0
-260 -336 -361 0
274 360 361 -362 0
274 -360 -361 -362 0
-274 -360 361 -362 0
-274 360 -361 -362 0
-274 -360 -361 362 0
-274 360 361 362 0
274 360 -361 362 0
274 -360 361 362 0
355 358 362 -363 0
-355 -358 362 -363 0
-355 358 -362 -363 0
355 -358 -362 -363 0
-355 -358 -362 363 0
355 358 -362 363 0
355 -358 362 363 0
-355 358 362 363 0
27 351 363 -364 0
-27 -351 363 -364 0
-27 351 -363 -364 0
27 -351 -363 -364 0
-27 -351 -363 364 0
27 351 -363 364 0
27 -351 363 364 0
-27 351 363 364 0
-364 0
-169 167 -365 0
167 185 -365 0
-169 185 -365 0
-167 169 365 0
365 -167 -185 0
169 -185 365 0
204 -365 -366 0
-204 365 -366 0
366 -204 -365 0
204 365 366 0
171 -173 -367 0
-173 -184 -367 0
171 -184 -367 0
-171 173 367 0
184 173 367 0
184 -171 367 0
-103 368 0
-172 368 0
103 172 -368 0
-105 368 -369 0
105 -368 -369 0
-105 -368 369 0
105 368 369 0
-176 183 -370 0
-176 174 -370 0
174 183 -370 0
176 -183 370 0
176 -174 370 0
-174 -183 370 0
-182 -179 -371 0
177 -179 -371 0
-182 177 -371 0
182 179 371 0
-177 179 371 0
-177 182 371 0
-145 372 0
-181 372 0
145 181 -372 0
-238 372 -373 0
238 -372 -373 0
-238 -372 373 0
238 372 373 0
300 371 373 -374 0
-300 -371 373 -374 0
300 -371 -373 -374 0
-300 371 -373 -374 0
-300 -371 -373 374 0
300 371 -373 374 0
-300 371 373 374 0
300 -371 373 374 0
206 370 374 -375 0
-206 -370 374 -375 0
206 -370 -374 -375 0
-206 370 -374 -375 0
-206 -370 -374 375 0
206 370 -374 375 0
-206 370 374 375 0
206 -370 374 375 0
367 369 375 -376 0
-367 -369 375 -376 0
-367 369 -375 -376 0
367 -369 -375 -376 0
-367 -369 -375 376 0
367 369 -375 376 0
367 -369 375 376 0
-367 369 375 376 0
35 366 376 0
35 -366 -376 0
-35 -366 376 0
-35 366 -376 0
-204 -376 -377 0
-204 365 -377 0
365 -376 -377 0
204 376 377 0
204 -365 377 0
-365 376 377 0
-369 375 -378 0
367 375 -378 0
367 -369 -378 0
369 -375 378 0
-367 -375 378 0
-367 369 378 0
-105 379 0
-368 379 0
105 368 -379 0
-107 379 -380 0
107 -379 -380 0
-107 -379 380 0
107 379 380 0
370 -374 -381 0
-206 370 -381 0
-206 -374 -381 0
-370 374 381 0
206 -370 381 0
206 374 381 0
-300 373 -382 0
371 373 -382 0
-300 371 -382 0
300 -373 382 0
-371 -373 382 0
300 -371 382 0
238 383 0
372 383 0
238 372 383 0
-238 -372 -383 0
248 -383 -384 0
-248 383 -384 0
384 -248 -383 0
248 383 384 0
317 382 384 -385 0
-317 -382 384 -385 0
317 -382 -384 -385 0
-317 382 -384 -385 0
-317 -382 -384 385 0
317 382 -384 385 0
-317 382 384 385 0
317 -382 384 385 0
213 381 385 -386 0
-213 -381 385 -386 0
213 -381 -385 -386 0
-213 381 -385 -386 0
-213 -381 -385 386 0
213 381 -385 386 0
-213 381 385 386 0
213 -381 385 386 0
378 380 386 -387 0
-378 -380 386 -387 0
-378 380 -386 -387 0
378 -380 -386 -387 0
-378 -380 -386 387 0
378 380 -386 387 0
378 -380 386 387 0
-378 380 386 387 0
-211 -387 -388 0
377 -387 -388 0
-211 377 -388 0
211 387 388 0
-377 387 388 0
211 -377 388 0
378 -380 -389 0
-380 386 -389 0
378 386 -389 0
-378 380 389 0
380 -386 389 0
389 -378 -386 0
-107 390 0
-379 390 0
107 379 -390 0
-109 390 -391 0
109 -390 -391 0
-109 -390 391 0
109 390 391 0
-213 381 -392 0
381 -385 -392 0
-213 -385 -392 0
213 -381 392 0
-381 385 392 0
213 385 392 0
-317 384 -393 0
382 384 -393 0
-317 382 -393 0
317 -384 393 0
-382 -384 393 0
317 -382 393 0
383 394 0
-248 394 0
248 -383 -394 0
-267 394 -395 0
267 -394 -395 0
-267 -394 395 0
267 394 395 0
331 393 395 -396 0
-331 -393 395 -396 0
331 -393 -395 -396 0
-331 393 -395 -396 0
-331 -393 -395 396 0
331 393 -395 396 0
-331 393 395 396 0
331 -393 395 396 0
225 392 396 -397 0
-225 -392 396 -397 0
225 -392 -396 -397 0
-225 392 -396 -397 0
-225 -392 -396 397 0
225 392 -396 397 0
-225 392 396 397 0
225 -392 396 397 0
389 391 397 -398 0
-389 -391 397 -398 0
-389 391 -397 -398 0
389 -391 -397 -398 0
-389 -391 -397 398 0
389 391 -397 398 0
389 -391 397 398 0
-389 391 397 398 0
-222 -398 -399 0
-222 388 -399 0
388 -398 -399 0
222 398 399 0
222 -388 399 0
-388 398 399 0
-123 400 0
-221 400 0
123 221 -400 0
-125 400 -401 0
125 -400 -401 0
-125 -400 401 0
125 400 401 0
-399 401 -402 0
399 -401 -402 0
-399 -401 402 0
399 401 402 0
389 -391 -403 0
-391 397 -403 0
389 397 -403 0
-389 391 403 0
391 -397 403 0
403 -389 -397 0
-109 404 0
-390 404 0
109 390 -404 0
111 403 404 -405 0
-111 -403 404 -405 0
111 -403 -404 -405 0
-111 403 -404 -405 0
-111 -403 -404 405 0
111 403 -404 405 0
-111 403 404 405 0
111 -403 404 405 0
392 -396 -406 0
-225 -396 -406 0
-225 392 -406 0
-392 396 406 0
225 396 406 0
225 -392 406 0
350 -406 -407 0
-350 406 -407 0
407 -350 -406 0
350 406 407 0
-331 395 -408 0
-331 393 -408 0
393 395 -408 0
331 -395 408 0
331 -393 408 0
-393 -395 408 0
354 -408 -409 0
-354 408 -409 0
409 -354 -408 0
354 408 409 0
267 410 0
394 410 0
267 394 410 0
-267 -394 -410 0
270 409 410 -411 0
270 -409 -410 -411 0
-270 -409 410 -411 0
-270 409 -410 -411 0
-270 -409 -410 411 0
-270 409 410 411 0
270 409 -410 411 0
270 -409 410 411 0
405 407 411 -412 0
-405 -407 411 -412 0
-405 407 -411 -412 0
405 -407 -411 -412 0
-405 -407 -411 412 0
405 407 -411 412 0
405 -407 411 412 0
-405 407 411 412 0
41 402 412 -413 0
-41 -402 412 -413 0
-41 402 -412 -413 0
41 -402 -412 -413 0
-41 -402 -412 413 0
41 402 -412 413 0
41 -402 412 413 0
-41 402 412 413 0
-413 0
211 -377 -414 0
-211 377 -414 0
414 -211 -377 0
211 377 414 0
37 387 414 0
37 -387 -414 0
-37 387 -414 0
-37 -387 414 0
29 113 155 0
29 -113 -155 0
-29 -113 155 0
-29 113 -155 0
222 -388 -415 0
-222 388 -415 0
415 -222 -388 0
222 388 415 0
39 398 415 0
39 -398 -415 0
-39 398 -415 0
-39 -398 415 0
156 -157 -416 0
-156 157 -416 0
416 -156 -157 0
156 157 416 0
31 166 416 0
31 -166 -416 0
166 -31 -416 0
-166 -31 416 0
127 195 43 0
-127 -195 43 0
-127 -43 195 0
-195 127 -43 0
198 -197 -417 0
197 -198 -417 0
-198 -197 417 0
197 198 417 0
200 47 417 -418 0
200 -47 -417 -418 0
-200 -47 417 -418 0
-200 47 -417 -418 0
-200 -47 -417 418 0
-200 47 417 418 0
200 47 -417 418 0
200 -47 417 418 0
-418 0
216 227 -419 0
-218 227 -419 0
-218 216 -419 0
-227 -216 419 0
218 -227 419 0
218 -216 419 0
-137 420 0
-217 420 0
137 217 -420 0
139 419 420 -421 0
-139 -419 420 -421 0
139 -419 -420 -421 0
-139 419 -420 -421 0
-139 -419 -420 421 0
139 419 -420 421 0
-139 419 420 421 0
139 -419 420 421 0
-226 -222 -422 0
220 -222 -422 0
-226 220 -422 0
226 222 422 0
-220 222 422 0
226 -220 422 0
401 -422 -423 0
-401 422 -423 0
423 -401 -422 0
401 422 423 0
-223 225 424 0
-223 424 0
225 424 0
223 -225 -424 0
350 423 424 -425 0
350 -423 -424 -425 0
-350 -423 424 -425 0
-350 423 -424 -425 0
-350 -423 -424 425 0
-350 423 424 425 0
350 423 -424 425 0
350 -423 424 425 0
55 421 425 -426 0
-55 -421 425 -426 0
-55 421 -425 -426 0
55 -421 -425 -426 0
-55 -421 -425 426 0
55 421 -425 426 0
55 -421 425 426 0
-55 421 425 426 0
-426 0
-192 196 -427 0
192 -196 -427 0
-192 -196 427 0
192 196 427 0
194 45 427 -428 0
-194 -45 427 -428 0
194 -45 -427 -428 0
-194 45 -427 -428 0
-194 -45 -427 428 0
194 45 -427 428 0
-194 45 427 428 0
194 -45 427 428 0
-428 0
-201 191 -429 0
201 -191 -429 0
429 -191 -201 0
201 191 429 0
49 207 429 0
49 -207 -429 0
-49 207 -429 0
-207 -49 429 0
-208 190 -430 0
208 -190 -430 0
430 -190 -208 0
208 190 430 0
51 215 430 0
51 -215 -430 0
215 -51 -430 0
-215 -51 430 0
